NAME 
ROWS
 N  OBJ
 L  R0      
 L  R1      
 E  R2      
 E  R3      
 E  R4      
 E  R5      
 E  R6      
 E  R7      
 E  R8      
 E  R9      
 E  R10     
 E  R11     
 E  R12     
 E  R13     
 E  R14     
 E  R15     
 E  R16     
COLUMNS
    MARKER    'MARKER'                 'INTORG'
    I0(8)     OBJ       134
    I0(8)     R0        -125
    I0(8)     R1        149
    I0(8)     R2        16
    I0(8)     R4        7
    I0(8)     R6        12
    I0(8)     R7        2
    I0(8)     R8        1
    I0(8)     R16       1
    I1(8)     OBJ       -157
    I1(8)     R0        -22
    I1(8)     R1        -181
    I1(8)     R3        15
    I1(8)     R4        -1
    I1(8)     R5        18
    I1(8)     R6        8
    I1(8)     R8        9
    I1(8)     R16       1
    I2(8)     OBJ       1
    I2(8)     R0        170
    I2(8)     R1        -194
    I2(8)     R3        7
    I2(8)     R4        10
    I2(8)     R6        12
    I2(8)     R7        -1
    I2(8)     R8        5
    I2(8)     R16       1
    I3(8)     OBJ       138
    I3(8)     R0        55
    I3(8)     R1        106
    I3(8)     R2        12
    I3(8)     R5        6
    I3(8)     R6        11
    I3(8)     R7        3
    I3(8)     R8        17
    I3(8)     R16       1
    I4(8)     OBJ       -62
    I4(8)     R0        51
    I4(8)     R1        153
    I4(8)     R2        14
    I4(8)     R4        11
    I4(8)     R5        10
    I4(8)     R6        5
    I4(8)     R7        18
    I4(8)     R16       1
    I5(9)     OBJ       109
    I5(9)     R0        -122
    I5(9)     R1        -154
    I5(9)     R2        6
    I5(9)     R4        5
    I5(9)     R5        5
    I5(9)     R6        10
    I5(9)     R7        11
    I5(9)     R8        7
    I5(9)     R16       1
    I6(7)     OBJ       -133
    I6(7)     R0        171
    I6(7)     R1        -183
    I6(7)     R3        17
    I6(7)     R4        17
    I6(7)     R7        17
    I6(7)     R8        17
    I6(7)     R16       1
    MARKER    'MARKER'                 'INTEND'
    C7(14)    OBJ       -4
    C7(14)    R0        8
    C7(14)    R1        1
    C7(14)    R2        2
    C7(14)    R3        19
    C7(14)    R4        -1
    C7(14)    R5        1
    C7(14)    R6        11
    C7(14)    R7        19
    C7(14)    R8        8
    C7(14)    R10       18
    C7(14)    R11       4
    C7(14)    R12       12
    C7(14)    R13       17
    C7(14)    R15       6
    C8(12)    OBJ       1
    C8(12)    R0        -2
    C8(12)    R1        -2
    C8(12)    R2        12
    C8(12)    R3        13
    C8(12)    R4        1
    C8(12)    R5        18
    C8(12)    R6        5
    C8(12)    R8        3
    C8(12)    R9        2
    C8(12)    R10       19
    C8(12)    R12       5
    C8(12)    R14       4
    C9(9)     OBJ       1
    C9(9)     R0        6
    C9(9)     R1        9
    C9(9)     R3        9
    C9(9)     R6        13
    C9(9)     R8        8
    C9(9)     R9        19
    C9(9)     R11       8
    C9(9)     R14       14
    C9(9)     R15       18
    C10(8)    OBJ       5
    C10(8)    R0        -5
    C10(8)    R1        -7
    C10(8)    R6        14
    C10(8)    R7        8
    C10(8)    R10       7
    C10(8)    R13       6
    C10(8)    R14       19
    C10(8)    R15       9
    C11(13)   OBJ       -10
    C11(13)   R0        -9
    C11(13)   R1        7
    C11(13)   R2        2
    C11(13)   R4        3
    C11(13)   R5        1
    C11(13)   R6        6
    C11(13)   R7        10
    C11(13)   R8        18
    C11(13)   R9        14
    C11(13)   R10       -1
    C11(13)   R11       3
    C11(13)   R12       3
    C11(13)   R14       -1
    C12(12)   OBJ       1
    C12(12)   R0        -4
    C12(12)   R1        4
    C12(12)   R2        8
    C12(12)   R3        1
    C12(12)   R4        -1
    C12(12)   R6        10
    C12(12)   R7        12
    C12(12)   R8        -1
    C12(12)   R11       15
    C12(12)   R12       7
    C12(12)   R14       17
    C12(12)   R15       18
    C13(9)    OBJ       4
    C13(9)    R0        -8
    C13(9)    R1        6
    C13(9)    R5        11
    C13(9)    R6        6
    C13(9)    R7        19
    C13(9)    R8        7
    C13(9)    R10       15
    C13(9)    R13       4
    C13(9)    R15       9
    C14(9)    OBJ       6
    C14(9)    R0        -3
    C14(9)    R1        -10
    C14(9)    R3        18
    C14(9)    R4        8
    C14(9)    R6        17
    C14(9)    R8        4
    C14(9)    R9        10
    C14(9)    R11       14
    C14(9)    R15       15
    C15(1)    R2        1
    C16(1)    R3        1
    C17(1)    R4        1
    C18(1)    R5        1
    C19(1)    R6        1
    C20(1)    R7        1
    C21(1)    R8        1
    C22(1)    R9        1
    C23(1)    R10       1
    C24(1)    R11       1
    C25(1)    R12       1
    C26(1)    R13       1
    C27(1)    R14       1
    C28(1)    R15       1
    C29(1)    R16       1
RHS
    RHS1      R0        -83.5
    RHS1      R1        -3.3127777777777777e+02
    RHS1      R2        50
    RHS1      R3        88
    RHS1      R4        82
    RHS1      R5        50
    RHS1      R6        97
    RHS1      R7        77
    RHS1      R8        97
    RHS1      R9        71
    RHS1      R10       99
    RHS1      R11       54
    RHS1      R12       89
    RHS1      R13       96
    RHS1      R14       78
    RHS1      R15       76
    RHS1      R16       2
BOUNDS
 UP BND1      I0(8)     2
 UP BND1      I1(8)     2
 UP BND1      I2(8)     2
 UP BND1      I3(8)     2
 UP BND1      I4(8)     2
 UP BND1      I5(9)     2
 UP BND1      I6(7)     2
ENDATA
